\Using Xpress-MP extensions

\Problem name: SU_Optimization                                                  
\FICO Xpress v8.8.7, Hyper, written 22:14:58, May 11, 2021

Minimize
 x(Z_A) + x(Z_B)

Subject To
x(R1019): x(y_A_0.5) - x(Z_A) <= 0 
x(R1020): x(y_A_1.0) - x(Z_A) <= 0 
x(R1021): x(y_A_1.5) - x(Z_A) <= 0 
x(R1022): x(y_B_0.5) - x(Z_B) <= 0 
x(R1023): x(y_B_1.0) - x(Z_B) <= 0 
x(R1024): x(y_B_1.5) - x(Z_B) <= 0 
x(R1025): 2 x(Z_A) - x(W_A) <= 0 
x(R1026): 2 x(Z_B) - x(W_B) <= 0 
x(R1011): 0.5 x(x_A_O4_CS O8_0.5||9.5) + 0.5 x(x_A_O4_CS O8_1||10)
          + 0.5 x(x_A_O4_CS O8_1.5||10.5) + 0.5 x(x_A_O4_O4 D2_0.5||9.5)
          + 0.5 x(x_A_O4_O4 D2_1||10) + 0.5 x(x_A_O4_O4 D2_1.5||10.5)
          + 0.5 x(x_A_O4_O4_Dart_0.5||9.5) + 0.5 x(x_A_O4_O4_Dart_1||10)
          + 0.5 x(x_A_O4_O4_Dart_1.5||10.5) + 0.5 x(x_A_O8_CS O8_0.5||9.5)
          + 0.5 x(x_A_O8_CS O8_1||10) + 0.5 x(x_A_O8_CS O8_1.5||10.5)
          + 0.5 x(x_A_O8_O4 D2_0.5||9.5) + 0.5 x(x_A_O8_O4 D2_1||10)
          + 0.5 x(x_A_O8_O4 D2_1.5||10.5) + 0.5 x(x_A_O8_O4_Dart_0.5||9.5)
          + 0.5 x(x_A_O8_O4_Dart_1||10) + 0.5 x(x_A_O8_O4_Dart_1.5||10.5)
          + 0.5 x(x_A_O1_CS O8_0.5||9.5) + 0.5 x(x_A_O1_CS O8_1||10)
          + 0.5 x(x_A_O1_CS O8_1.5||10.5) + 0.5 x(x_A_O1_O4 D2_0.5||9.5)
          + 0.5 x(x_A_O1_O4 D2_1||10) + 0.5 x(x_A_O1_O4 D2_1.5||10.5)
          + 0.5 x(x_A_O1_O4_Dart_0.5||9.5) + 0.5 x(x_A_O1_O4_Dart_1||10)
          + 0.5 x(x_A_O1_O4_Dart_1.5||10.5) - x(y_A_0.5) = 0 
x(R1012): x(x_A_O4_CS O8_0.5||9.5) + x(x_A_O4_CS O8_1||10)
          + x(x_A_O4_CS O8_1.5||10.5) + x(x_A_O4_O4 D2_0.5||9.5)
          + x(x_A_O4_O4 D2_1||10) + x(x_A_O4_O4 D2_1.5||10.5)
          + x(x_A_O4_O4_Dart_0.5||9.5) + x(x_A_O4_O4_Dart_1||10)
          + x(x_A_O4_O4_Dart_1.5||10.5) + x(x_A_O8_CS O8_0.5||9.5)
          + x(x_A_O8_CS O8_1||10) + x(x_A_O8_CS O8_1.5||10.5)
          + x(x_A_O8_O4 D2_0.5||9.5) + x(x_A_O8_O4 D2_1||10)
          + x(x_A_O8_O4 D2_1.5||10.5) + x(x_A_O8_O4_Dart_0.5||9.5)
          + x(x_A_O8_O4_Dart_1||10) + x(x_A_O8_O4_Dart_1.5||10.5)
          + x(x_A_O1_CS O8_0.5||9.5) + x(x_A_O1_CS O8_1||10)
          + x(x_A_O1_CS O8_1.5||10.5) + x(x_A_O1_O4 D2_0.5||9.5)
          + x(x_A_O1_O4 D2_1||10) + x(x_A_O1_O4 D2_1.5||10.5)
          + x(x_A_O1_O4_Dart_0.5||9.5) + x(x_A_O1_O4_Dart_1||10)
          + x(x_A_O1_O4_Dart_1.5||10.5) - x(y_A_1.0) = 0 
x(R1013): 1.5 x(x_A_O4_CS O8_0.5||9.5) + 1.5 x(x_A_O4_CS O8_1||10)
          + 1.5 x(x_A_O4_CS O8_1.5||10.5) + 1.5 x(x_A_O4_O4 D2_0.5||9.5)
          + 1.5 x(x_A_O4_O4 D2_1||10) + 1.5 x(x_A_O4_O4 D2_1.5||10.5)
          + 1.5 x(x_A_O4_O4_Dart_0.5||9.5) + 1.5 x(x_A_O4_O4_Dart_1||10)
          + 1.5 x(x_A_O4_O4_Dart_1.5||10.5) + 1.5 x(x_A_O8_CS O8_0.5||9.5)
          + 1.5 x(x_A_O8_CS O8_1||10) + 1.5 x(x_A_O8_CS O8_1.5||10.5)
          + 1.5 x(x_A_O8_O4 D2_0.5||9.5) + 1.5 x(x_A_O8_O4 D2_1||10)
          + 1.5 x(x_A_O8_O4 D2_1.5||10.5) + 1.5 x(x_A_O8_O4_Dart_0.5||9.5)
          + 1.5 x(x_A_O8_O4_Dart_1||10) + 1.5 x(x_A_O8_O4_Dart_1.5||10.5)
          + 1.5 x(x_A_O1_CS O8_0.5||9.5) + 1.5 x(x_A_O1_CS O8_1||10)
          + 1.5 x(x_A_O1_CS O8_1.5||10.5) + 1.5 x(x_A_O1_O4 D2_0.5||9.5)
          + 1.5 x(x_A_O1_O4 D2_1||10) + 1.5 x(x_A_O1_O4 D2_1.5||10.5)
          + 1.5 x(x_A_O1_O4_Dart_0.5||9.5) + 1.5 x(x_A_O1_O4_Dart_1||10)
          + 1.5 x(x_A_O1_O4_Dart_1.5||10.5) - x(y_A_1.5) = 0 
x(R1014): 0.5 x(x_B_O4_CS O8_0.5||9.5) + 0.5 x(x_B_O4_CS O8_1||10)
          + 0.5 x(x_B_O4_CS O8_1.5||10.5) + 0.5 x(x_B_O4_O4 D2_0.5||9.5)
          + 0.5 x(x_B_O4_O4 D2_1||10) + 0.5 x(x_B_O4_O4 D2_1.5||10.5)
          + 0.5 x(x_B_O4_O4_Dart_0.5||9.5) + 0.5 x(x_B_O4_O4_Dart_1||10)
          + 0.5 x(x_B_O4_O4_Dart_1.5||10.5) + 0.5 x(x_B_O8_CS O8_0.5||9.5)
          + 0.5 x(x_B_O8_CS O8_1||10) + 0.5 x(x_B_O8_CS O8_1.5||10.5)
          + 0.5 x(x_B_O8_O4 D2_0.5||9.5) + 0.5 x(x_B_O8_O4 D2_1||10)
          + 0.5 x(x_B_O8_O4 D2_1.5||10.5) + 0.5 x(x_B_O8_O4_Dart_0.5||9.5)
          + 0.5 x(x_B_O8_O4_Dart_1||10) + 0.5 x(x_B_O8_O4_Dart_1.5||10.5)
          + 0.5 x(x_B_O1_CS O8_0.5||9.5) + 0.5 x(x_B_O1_CS O8_1||10)
          + 0.5 x(x_B_O1_CS O8_1.5||10.5) + 0.5 x(x_B_O1_O4 D2_0.5||9.5)
          + 0.5 x(x_B_O1_O4 D2_1||10) + 0.5 x(x_B_O1_O4 D2_1.5||10.5)
          + 0.5 x(x_B_O1_O4_Dart_0.5||9.5) + 0.5 x(x_B_O1_O4_Dart_1||10)
          + 0.5 x(x_B_O1_O4_Dart_1.5||10.5) - x(y_B_0.5) = 0 
x(R1015): x(x_B_O4_CS O8_0.5||9.5) + x(x_B_O4_CS O8_1||10)
          + x(x_B_O4_CS O8_1.5||10.5) + x(x_B_O4_O4 D2_0.5||9.5)
          + x(x_B_O4_O4 D2_1||10) + x(x_B_O4_O4 D2_1.5||10.5)
          + x(x_B_O4_O4_Dart_0.5||9.5) + x(x_B_O4_O4_Dart_1||10)
          + x(x_B_O4_O4_Dart_1.5||10.5) + x(x_B_O8_CS O8_0.5||9.5)
          + x(x_B_O8_CS O8_1||10) + x(x_B_O8_CS O8_1.5||10.5)
          + x(x_B_O8_O4 D2_0.5||9.5) + x(x_B_O8_O4 D2_1||10)
          + x(x_B_O8_O4 D2_1.5||10.5) + x(x_B_O8_O4_Dart_0.5||9.5)
          + x(x_B_O8_O4_Dart_1||10) + x(x_B_O8_O4_Dart_1.5||10.5)
          + x(x_B_O1_CS O8_0.5||9.5) + x(x_B_O1_CS O8_1||10)
          + x(x_B_O1_CS O8_1.5||10.5) + x(x_B_O1_O4 D2_0.5||9.5)
          + x(x_B_O1_O4 D2_1||10) + x(x_B_O1_O4 D2_1.5||10.5)
          + x(x_B_O1_O4_Dart_0.5||9.5) + x(x_B_O1_O4_Dart_1||10)
          + x(x_B_O1_O4_Dart_1.5||10.5) - x(y_B_1.0) = 0 
x(R1016): 1.5 x(x_B_O4_CS O8_0.5||9.5) + 1.5 x(x_B_O4_CS O8_1||10)
          + 1.5 x(x_B_O4_CS O8_1.5||10.5) + 1.5 x(x_B_O4_O4 D2_0.5||9.5)
          + 1.5 x(x_B_O4_O4 D2_1||10) + 1.5 x(x_B_O4_O4 D2_1.5||10.5)
          + 1.5 x(x_B_O4_O4_Dart_0.5||9.5) + 1.5 x(x_B_O4_O4_Dart_1||10)
          + 1.5 x(x_B_O4_O4_Dart_1.5||10.5) + 1.5 x(x_B_O8_CS O8_0.5||9.5)
          + 1.5 x(x_B_O8_CS O8_1||10) + 1.5 x(x_B_O8_CS O8_1.5||10.5)
          + 1.5 x(x_B_O8_O4 D2_0.5||9.5) + 1.5 x(x_B_O8_O4 D2_1||10)
          + 1.5 x(x_B_O8_O4 D2_1.5||10.5) + 1.5 x(x_B_O8_O4_Dart_0.5||9.5)
          + 1.5 x(x_B_O8_O4_Dart_1||10) + 1.5 x(x_B_O8_O4_Dart_1.5||10.5)
          + 1.5 x(x_B_O1_CS O8_0.5||9.5) + 1.5 x(x_B_O1_CS O8_1||10)
          + 1.5 x(x_B_O1_CS O8_1.5||10.5) + 1.5 x(x_B_O1_O4 D2_0.5||9.5)
          + 1.5 x(x_B_O1_O4 D2_1||10) + 1.5 x(x_B_O1_O4 D2_1.5||10.5)
          + 1.5 x(x_B_O1_O4_Dart_0.5||9.5) + 1.5 x(x_B_O1_O4_Dart_1||10)
          + 1.5 x(x_B_O1_O4_Dart_1.5||10.5) - x(y_B_1.5) = 0 
x(R1017): - x(x_A_O4_CS O8_0.5||9.5) - x(x_A_O4_CS O8_1||10)
          - x(x_A_O4_CS O8_1.5||10.5) - x(x_A_O4_O4 D2_0.5||9.5)
          - x(x_A_O4_O4 D2_1||10) - x(x_A_O4_O4 D2_1.5||10.5)
          - x(x_A_O4_O4_Dart_0.5||9.5) - x(x_A_O4_O4_Dart_1||10)
          - x(x_A_O4_O4_Dart_1.5||10.5) - x(x_A_O8_CS O8_0.5||9.5)
          - x(x_A_O8_CS O8_1||10) - x(x_A_O8_CS O8_1.5||10.5)
          - x(x_A_O8_O4 D2_0.5||9.5) - x(x_A_O8_O4 D2_1||10)
          - x(x_A_O8_O4 D2_1.5||10.5) - x(x_A_O8_O4_Dart_0.5||9.5)
          - x(x_A_O8_O4_Dart_1||10) - x(x_A_O8_O4_Dart_1.5||10.5)
          - x(x_A_O1_CS O8_0.5||9.5) - x(x_A_O1_CS O8_1||10)
          - x(x_A_O1_CS O8_1.5||10.5) - x(x_A_O1_O4 D2_0.5||9.5)
          - x(x_A_O1_O4 D2_1||10) - x(x_A_O1_O4 D2_1.5||10.5)
          - x(x_A_O1_O4_Dart_0.5||9.5) - x(x_A_O1_O4_Dart_1||10)
          - x(x_A_O1_O4_Dart_1.5||10.5) + x(W_A) = 0 
x(R1018): - x(x_B_O4_CS O8_0.5||9.5) - x(x_B_O4_CS O8_1||10)
          - x(x_B_O4_CS O8_1.5||10.5) - x(x_B_O4_O4 D2_0.5||9.5)
          - x(x_B_O4_O4 D2_1||10) - x(x_B_O4_O4 D2_1.5||10.5)
          - x(x_B_O4_O4_Dart_0.5||9.5) - x(x_B_O4_O4_Dart_1||10)
          - x(x_B_O4_O4_Dart_1.5||10.5) - x(x_B_O8_CS O8_0.5||9.5)
          - x(x_B_O8_CS O8_1||10) - x(x_B_O8_CS O8_1.5||10.5)
          - x(x_B_O8_O4 D2_0.5||9.5) - x(x_B_O8_O4 D2_1||10)
          - x(x_B_O8_O4 D2_1.5||10.5) - x(x_B_O8_O4_Dart_0.5||9.5)
          - x(x_B_O8_O4_Dart_1||10) - x(x_B_O8_O4_Dart_1.5||10.5)
          - x(x_B_O1_CS O8_0.5||9.5) - x(x_B_O1_CS O8_1||10)
          - x(x_B_O1_CS O8_1.5||10.5) - x(x_B_O1_O4 D2_0.5||9.5)
          - x(x_B_O1_O4 D2_1||10) - x(x_B_O1_O4 D2_1.5||10.5)
          - x(x_B_O1_O4_Dart_0.5||9.5) - x(x_B_O1_O4_Dart_1||10)
          - x(x_B_O1_O4_Dart_1.5||10.5) + x(W_B) = 0 

Bounds

Generals
x(x_A_O4_CS O8_0.5||9.5) x(x_A_O4_CS O8_1||10) x(x_A_O4_CS O8_1.5||10.5) 
x(x_B_O4_CS O8_0.5||9.5) x(x_B_O4_CS O8_1||10) x(x_B_O4_CS O8_1.5||10.5) 
x(x_A_O4_O4 D2_0.5||9.5) x(x_A_O4_O4 D2_1||10) x(x_A_O4_O4 D2_1.5||10.5) 
x(x_B_O4_O4 D2_0.5||9.5) x(x_B_O4_O4 D2_1||10) x(x_B_O4_O4 D2_1.5||10.5) 
x(x_A_O4_O4_Dart_0.5||9.5) x(x_A_O4_O4_Dart_1||10) x(x_A_O4_O4_Dart_1.5||10.5) 
x(x_B_O4_O4_Dart_0.5||9.5) x(x_B_O4_O4_Dart_1||10) x(x_B_O4_O4_Dart_1.5||10.5) 
x(x_A_O8_CS O8_0.5||9.5) x(x_A_O8_CS O8_1||10) x(x_A_O8_CS O8_1.5||10.5) 
x(x_B_O8_CS O8_0.5||9.5) x(x_B_O8_CS O8_1||10) x(x_B_O8_CS O8_1.5||10.5) 
x(x_A_O8_O4 D2_0.5||9.5) x(x_A_O8_O4 D2_1||10) x(x_A_O8_O4 D2_1.5||10.5) 
x(x_B_O8_O4 D2_0.5||9.5) x(x_B_O8_O4 D2_1||10) x(x_B_O8_O4 D2_1.5||10.5) 
x(x_A_O8_O4_Dart_0.5||9.5) x(x_A_O8_O4_Dart_1||10) x(x_A_O8_O4_Dart_1.5||10.5) 
x(x_B_O8_O4_Dart_0.5||9.5) x(x_B_O8_O4_Dart_1||10) x(x_B_O8_O4_Dart_1.5||10.5) 
x(x_A_O1_CS O8_0.5||9.5) x(x_A_O1_CS O8_1||10) x(x_A_O1_CS O8_1.5||10.5) 
x(x_B_O1_CS O8_0.5||9.5) x(x_B_O1_CS O8_1||10) x(x_B_O1_CS O8_1.5||10.5) 
x(x_A_O1_O4 D2_0.5||9.5) x(x_A_O1_O4 D2_1||10) x(x_A_O1_O4 D2_1.5||10.5) 
x(x_B_O1_O4 D2_0.5||9.5) x(x_B_O1_O4 D2_1||10) x(x_B_O1_O4 D2_1.5||10.5) 
x(x_A_O1_O4_Dart_0.5||9.5) x(x_A_O1_O4_Dart_1||10) x(x_A_O1_O4_Dart_1.5||10.5) 
x(x_B_O1_O4_Dart_0.5||9.5) x(x_B_O1_O4_Dart_1||10) x(x_B_O1_O4_Dart_1.5||10.5) 

End
